
Gurobi 12.0.3 (linux64) logging started Fri Mar 27 00:13:30 2026

Set parameter LogFile to value "/home/solar-wind/WT_Solar_results_bigM100000_thread4/case24_ieee_rts_theta0.12_epsilon0.08_gurobi_seed20000_num_gen38_N_WDR200_load_scaling_factor1_EIFICA_T24_num_Solar5_num_WT10.txt"
Gurobi Optimizer version 12.0.3 build v12.0.3rc0 (linux64 - "Ubuntu 22.04.5 LTS")

CPU model: Intel(R) Xeon(R) Platinum 8378A CPU @ 3.00GHz, instruction set [SSE2|AVX|AVX2|AVX512]
Thread count: 32 physical cores, 64 logical processors, using up to 4 threads

Non-default parameters:
TimeLimit  14400
MIPGap  0.001
Seed  20000
Threads  4

Academic license 2721591 - for non-commercial use only - registered to fa___@mails.neu.edu.cn
Optimize a model with 595812 rows, 2025 columns and 50902696 nonzeros
Model fingerprint: 0x0a7f50ff
Model has 912 quadratic objective terms
Coefficient statistics:
  Matrix range     [3e-07, 6e+01]
  Objective range  [3e+01, 6e+01]
  QObjective range [4e-03, 2e-02]
  Bounds range     [0e+00, 0e+00]
  RHS range        [4e-02, 1e+03]
Presolve removed 442554 rows and 0 columns
Presolve time: 5.16s
Presolved: 153258 rows, 2899 columns, 3514062 nonzeros
Presolved model has 912 quadratic objective terms
Elapsed ordering time = 12s
Elapsed ordering time = 15s
Ordering time: 25.81s
Elapsed ordering time = 26s
Elapsed ordering time = 30s
Elapsed ordering time = 33s
Elapsed ordering time = 36s
Elapsed ordering time = 40s
Elapsed ordering time = 44s
Elapsed ordering time = 45s
Ordering time: 47.37s

Barrier statistics:
 Dense cols : 1059
 AA' NZ     : 1.449e+08
 Factor NZ  : 6.128e+08 (roughly 5.0 GB of memory)
 Factor Ops : 6.493e+12 (roughly 40 seconds per iteration)
 Threads    : 4

                  Objective                Residual
Iter       Primal          Dual         Primal    Dual     Compl     Time
   0   5.85203672e+08 -3.05705078e+08  3.75e+04 9.95e+02  9.92e+05   127s
   1   5.27440697e+08 -2.66580985e+08  3.50e+04 9.28e+02  9.26e+05   127s
   2   5.10479194e+08 -2.99158598e+08  3.42e+04 9.07e+02  9.14e+05   127s
   3   4.79874961e+08 -3.38196155e+08  3.28e+04 8.69e+02  8.90e+05   128s
   4   4.12756436e+08 -3.78546484e+08  2.96e+04 7.81e+02  8.29e+05   128s
   5   3.59184360e+08 -4.33721958e+08  2.70e+04 7.06e+02  8.00e+05   128s
   6   3.16590264e+08 -4.34387123e+08  2.47e+04 6.44e+02  7.31e+05   128s
   7   2.83503301e+08 -4.39545738e+08  2.28e+04 5.93e+02  6.75e+05   128s
   8   2.52255027e+08 -4.47577946e+08  2.10e+04 5.43e+02  6.19e+05   128s
   9   2.25186283e+08 -4.57033779e+08  1.93e+04 4.99e+02  5.69e+05   128s
  10   1.98117708e+08 -4.65741560e+08  1.75e+04 4.51e+02  5.16e+05   129s
  11   1.78834306e+08 -4.76614965e+08  1.62e+04 4.15e+02  4.76e+05   129s
  12   1.57921708e+08 -5.08068248e+08  1.48e+04 3.75e+02  4.43e+05   129s
  13   1.36303820e+08 -5.23850168e+08  1.32e+04 3.32e+02  3.94e+05   129s
  14   1.14435999e+08 -5.41856784e+08  1.15e+04 2.87e+02  3.42e+05   129s
  15   9.92562028e+07 -5.70028894e+08  1.03e+04 2.55e+02  3.15e+05   129s
  16   8.16710619e+07 -5.93097623e+08  8.81e+03 2.16e+02  2.68e+05   129s
  17   7.04710395e+07 -6.08030691e+08  7.82e+03 1.90e+02  2.37e+05   129s
  18   5.99205048e+07 -6.22070187e+08  6.83e+03 1.65e+02  2.06e+05   130s
  19   5.00328002e+07 -6.35816560e+08  5.85e+03 1.40e+02  1.76e+05   130s
  20   4.15399451e+07 -6.47677001e+08  4.97e+03 1.18e+02  1.49e+05   130s
  21   3.12564397e+07 -6.60771862e+08  3.85e+03 9.07e+01  1.16e+05   130s
  22   2.25733055e+07 -6.64642185e+08  3.34e+03 6.65e+01  8.62e+04   130s
  23   1.66000890e+07 -6.58641834e+08  2.89e+03 4.93e+01  6.46e+04   130s
  24   1.37016673e+07 -6.46965837e+08  2.56e+03 4.07e+01  5.37e+04   130s
  25   9.77861309e+06 -6.22193064e+08  2.25e+03 2.88e+01  3.87e+04   130s
  26   7.38470197e+06 -5.87378096e+08  1.79e+03 2.14e+01  2.91e+04   130s
  27   5.58306621e+06 -5.41256905e+08  1.34e+03 1.58e+01  2.18e+04   131s
  28   4.07265537e+06 -4.94060028e+08  1.05e+03 1.12e+01  1.64e+04   131s
  29   3.25988812e+06 -4.52278538e+08  8.31e+02 8.66e+00  1.28e+04   131s
  30   2.62440888e+06 -4.11787624e+08  6.55e+02 6.71e+00  1.01e+04   131s
  31   1.90849442e+06 -4.17856416e+08  4.17e+02 4.46e+00  8.21e+03   131s
  32   1.54770060e+06 -3.63173322e+08  3.03e+02 3.26e+00  6.11e+03   131s
  33   1.14914081e+06 -3.44474284e+08  1.55e+02 1.74e+00  4.23e+03   131s
  34   9.24076748e+05 -2.67164797e+08  7.84e+01 8.79e-01  2.58e+03   131s
  35   8.55498412e+05 -2.24963070e+08  5.52e+01 6.15e-01  1.98e+03   132s
  36   8.01865632e+05 -1.83899953e+08  3.59e+01 3.96e-01  1.48e+03   132s
  37   7.78469312e+05 -1.54105518e+08  2.58e+01 2.86e-01  1.18e+03   132s
  38   7.71320203e+05 -1.43904757e+08  2.27e+01 2.51e-01  1.09e+03   133s
  39   7.59059970e+05 -1.23970176e+08  1.70e+01 1.87e-01  9.06e+02   133s
  40   7.54969409e+05 -1.14250355e+08  1.45e+01 1.61e-01  8.24e+02   134s
  41   7.50871407e+05 -1.02987309e+08  1.18e+01 1.32e-01  7.34e+02   134s
  42   7.48615249e+05 -9.17682912e+07  9.43e+00 1.05e-01  6.46e+02   135s
  43   7.45351593e+05 -7.02394079e+07  6.31e+00 6.99e-02  4.89e+02   136s
  44   7.43438073e+05 -5.93513740e+07  4.88e+00 5.40e-02  4.07e+02   138s
  45   7.38620048e+05 -1.99100452e+07  9.46e-01 1.05e-02  1.33e+02   154s
  46   7.33723020e+05  2.91254385e+05  1.41e-02 6.20e-03  2.82e+00   170s
  47   6.63116556e+05  5.65600276e+05  8.35e-04 3.45e-02  6.21e-01   186s
  48   6.45499456e+05  6.00349797e+05  1.46e-04 4.89e-03  2.88e-01   204s
  49   6.41040656e+05  6.23122607e+05  3.86e-04 3.38e-04  1.14e-01   235s
  50   6.38802842e+05  6.34386052e+05  2.14e-05 1.87e-05  2.81e-02   264s
  51   6.38305535e+05  6.36681650e+05  3.04e-06 2.66e-06  1.03e-02   294s
  52   6.38245776e+05  6.36934403e+05  1.18e-06 1.03e-06  8.35e-03   322s
  53   6.38141871e+05  6.37417999e+05  1.32e-09 1.15e-09  4.61e-03   352s
  54   6.38071221e+05  6.37763933e+05  3.22e-10 1.98e-11  1.96e-03   382s
  55   6.38032360e+05  6.37952933e+05  2.47e-10 3.04e-10  5.06e-04   409s
  56   6.38026297e+05  6.37982373e+05  1.05e-12 7.73e-12  2.80e-04   438s
  57   6.38022154e+05  6.38002383e+05  1.77e-10 8.47e-12  1.26e-04   467s
  58   6.38020507e+05  6.38010324e+05  1.00e-09 9.55e-12  6.48e-05   495s
  59   6.38018806e+05  6.38018561e+05  3.32e-09 1.54e-10  1.56e-06   523s
  60   6.38018764e+05  6.38018764e+05  2.96e-10 1.15e-10  1.80e-09   550s

Barrier solved model in 60 iterations and 550.41 seconds (653.03 work units)
Optimal objective 6.38018764e+05

